Calculando min-max:
Criando instancia max-E...
Instancia criada.
Resolvendo instancia...

Welcome to IBM(R) ILOG(R) CPLEX(R) Interactive Optimizer 22.1.0.0
  with Simplex, Mixed Integer & Barrier Optimizers
5725-A06 5725-A29 5724-Y48 5724-Y49 5724-Y54 5724-Y55 5655-Y21
Copyright IBM Corp. 1988, 2022.  All Rights Reserved.

Type 'help' for a list of available commands.
Type 'help' followed by a command name for more
information on commands.

CPLEX> Logfile 'cplex.log' closed.
Logfile 'C:\Users\LUCASP~1\AppData\Local\Temp\tmpu7xpc8n0.cplex.log' open.
CPLEX> Problem 'C:\Users\LUCASP~1\AppData\Local\Temp\tmpduluij3c.pyomo.lp' read.
Read time = 0.14 sec. (5.36 ticks)
CPLEX> Problem name         : C:\Users\LUCASP~1\AppData\Local\Temp\tmpduluij3c.pyomo.lp
Objective sense      : Maximize
Variables            :   25892  [Nneg: 1,  Binary: 25860,  General Integer: 31]
Objective nonzeros   :      90
Linear constraints   :   50725  [Less: 36113,  Greater: 1,  Equal: 14611]
  Nonzeros           :  116202
  RHS nonzeros       :   10069

Variables            : Min LB: 0.000000         Max UB: 1.000000       
Objective nonzeros   : Min   : 0.3058910        Max   : 0.7619800      
Linear constraints   :
  Nonzeros           : Min   : 1.000000         Max   : 100000.0       
  RHS nonzeros       : Min   : 1.000000         Max   : 30.00000       
CPLEX> Version identifier: 22.1.0.0 | 2022-03-09 | 1a383f8ce
Tried aggregator 3 times.
MIP Presolve eliminated 27819 rows and 16629 columns.
MIP Presolve modified 777 coefficients.
Aggregator did 278 substitutions.
Reduced MIP has 22628 rows, 8985 columns, and 56756 nonzeros.
Reduced MIP has 8955 binaries, 30 generals, 0 SOSs, and 0 indicators.
Presolve time = 0.63 sec. (230.81 ticks)
Found incumbent of value 1.517871 after 1.09 sec. (394.91 ticks)
Probing time = 0.50 sec. (42.10 ticks)
Tried aggregator 1 time.
Detecting symmetries...
MIP Presolve eliminated 57 rows and 19 columns.
Reduced MIP has 22571 rows, 8966 columns, and 56623 nonzeros.
Reduced MIP has 8936 binaries, 30 generals, 0 SOSs, and 0 indicators.
Presolve time = 0.66 sec. (265.87 ticks)
Probing time = 0.09 sec. (7.73 ticks)
Clique table members: 37119.
MIP emphasis: balance optimality and feasibility.
MIP search method: dynamic search.
Parallel mode: deterministic, using up to 4 threads.
Root relaxation solution time = 0.97 sec. (337.92 ticks)

        Nodes                                         Cuts/
   Node  Left     Objective  IInf  Best Integer    Best Bound    ItCnt     Gap

*     0+    0                            1.5179       51.6540              --- 
      0     0       22.8594    61        1.5179       22.8594       16     --- 
*     0+    0                           22.8594       22.8594             0.00%
      0     0        cutoff             22.8594       22.8594      154    0.00%
Elapsed time = 3.97 sec. (1272.50 ticks, tree = 0.01 MB, solutions = 2)

Clique cuts applied:  2
Implied bound cuts applied:  23
Mixed integer rounding cuts applied:  5
Zero-half cuts applied:  8
Gomory fractional cuts applied:  6

Root node processing (before b&c):
  Real time             =    3.98 sec. (1273.62 ticks)
Parallel b&c, 4 threads:
  Real time             =    0.00 sec. (0.00 ticks)
  Sync time (average)   =    0.00 sec.
  Wait time (average)   =    0.00 sec.
                          ------------
Total (root+branch&cut) =    3.98 sec. (1273.62 ticks)

Solution pool: 2 solutions saved.

MIP - Integer optimal solution:  Objective =  2.2859400000e+01
Solution time =    4.00 sec.  Iterations = 154  Nodes = 0
Deterministic time = 1273.70 ticks  (318.42 ticks/sec)

CPLEX> Incumbent solution written to file 'C:\Users\LUCASP~1\AppData\Local\Temp\tmpdmcx7n8m.cplex.sol'.
CPLEX> Criando instancia max-C...
Instancia criada.
Resolvendo instancia...

Welcome to IBM(R) ILOG(R) CPLEX(R) Interactive Optimizer 22.1.0.0
  with Simplex, Mixed Integer & Barrier Optimizers
5725-A06 5725-A29 5724-Y48 5724-Y49 5724-Y54 5724-Y55 5655-Y21
Copyright IBM Corp. 1988, 2022.  All Rights Reserved.

Type 'help' for a list of available commands.
Type 'help' followed by a command name for more
information on commands.

CPLEX> Logfile 'cplex.log' closed.
Logfile 'C:\Users\LUCASP~1\AppData\Local\Temp\tmp556k3gaf.cplex.log' open.
CPLEX> Problem 'C:\Users\LUCASP~1\AppData\Local\Temp\tmpodln27bw.pyomo.lp' read.
Read time = 0.14 sec. (5.36 ticks)
CPLEX> Problem name         : C:\Users\LUCASP~1\AppData\Local\Temp\tmpodln27bw.pyomo.lp
Objective sense      : Maximize
Variables            :   25892  [Nneg: 1,  Binary: 25860,  General Integer: 31]
Objective nonzeros   :     100
Linear constraints   :   50725  [Less: 36113,  Greater: 1,  Equal: 14611]
  Nonzeros           :  116202
  RHS nonzeros       :   10069

Variables            : Min LB: 0.000000         Max UB: 1.000000       
Objective nonzeros   : Min   : 1.000000         Max   : 1.000000       
Linear constraints   :
  Nonzeros           : Min   : 1.000000         Max   : 100000.0       
  RHS nonzeros       : Min   : 1.000000         Max   : 30.00000       
CPLEX> Version identifier: 22.1.0.0 | 2022-03-09 | 1a383f8ce
Tried aggregator 3 times.
MIP Presolve eliminated 27819 rows and 16629 columns.
MIP Presolve modified 777 coefficients.
Aggregator did 278 substitutions.
Reduced MIP has 22628 rows, 8985 columns, and 56756 nonzeros.
Reduced MIP has 8955 binaries, 30 generals, 0 SOSs, and 0 indicators.
Presolve time = 0.59 sec. (230.69 ticks)
Probing time = 0.44 sec. (32.52 ticks)
Tried aggregator 1 time.
Detecting symmetries...
MIP Presolve eliminated 39 rows and 13 columns.
Reduced MIP has 22589 rows, 8972 columns, and 56665 nonzeros.
Reduced MIP has 8942 binaries, 30 generals, 0 SOSs, and 0 indicators.
Presolve time = 0.59 sec. (290.20 ticks)
Probing time = 0.08 sec. (7.75 ticks)
Clique table members: 37146.
MIP emphasis: balance optimality and feasibility.
MIP search method: dynamic search.
Parallel mode: deterministic, using up to 4 threads.
Root relaxation solution time = 2.00 sec. (354.89 ticks)

        Nodes                                         Cuts/
   Node  Left     Objective  IInf  Best Integer    Best Bound    ItCnt     Gap

      0     0       99.0000   563                     99.0000        7         
*     0+    0                            0.0000       99.0000              --- 
*     0+    0                           19.0000       99.0000           421.05%
      0     0       99.0000    55       19.0000      Cuts: 14      100  421.05%
      0     0       99.0000    38       19.0000     Cuts: 144      622  421.05%
      0     0       99.0000   158       19.0000      Cuts: 82     1255  421.05%
      0     0       99.0000    16       19.0000  Impl Bds: 39     1458  421.05%
      0     0       99.0000    90       19.0000      Cuts: 41     1748  421.05%
*     0+    0                           99.0000       99.0000             0.00%
      0     0        cutoff             99.0000       99.0000     1748    0.00%
Elapsed time = 22.25 sec. (6071.67 ticks, tree = 0.01 MB, solutions = 3)

Clique cuts applied:  3
Implied bound cuts applied:  81
Mixed integer rounding cuts applied:  6
Zero-half cuts applied:  2
Gomory fractional cuts applied:  1

Root node processing (before b&c):
  Real time             =   22.27 sec. (6072.97 ticks)
Parallel b&c, 4 threads:
  Real time             =    0.00 sec. (0.00 ticks)
  Sync time (average)   =    0.00 sec.
  Wait time (average)   =    0.00 sec.
                          ------------
Total (root+branch&cut) =   22.27 sec. (6072.97 ticks)

Solution pool: 3 solutions saved.

MIP - Integer optimal solution:  Objective =  9.9000000000e+01
Solution time =   22.27 sec.  Iterations = 1748  Nodes = 0
Deterministic time = 6073.04 ticks  (272.75 ticks/sec)

CPLEX> Incumbent solution written to file 'C:\Users\LUCASP~1\AppData\Local\Temp\tmpbs37f3fp.cplex.sol'.
CPLEX> Criando instancia min-E...
Instancia criada.
Resolvendo instancia...
Criando instancia min-C...
Instancia criada.
Resolvendo instancia...
Maximos: {'E': 22.859400000000008, 'C': 99.0, 'M': 0}
Minimos: {'E': 0.611782, 'C': 0.0, 'M': 0}
Resolvendo instancia...

Welcome to IBM(R) ILOG(R) CPLEX(R) Interactive Optimizer 22.1.0.0
  with Simplex, Mixed Integer & Barrier Optimizers
5725-A06 5725-A29 5724-Y48 5724-Y49 5724-Y54 5724-Y55 5655-Y21
Copyright IBM Corp. 1988, 2022.  All Rights Reserved.

Type 'help' for a list of available commands.
Type 'help' followed by a command name for more
information on commands.

CPLEX> Logfile 'cplex.log' closed.
Logfile 'C:\Users\LUCASP~1\AppData\Local\Temp\tmp2_w5cgen.cplex.log' open.
CPLEX> Problem 'C:\Users\LUCASP~1\AppData\Local\Temp\tmpkrtx899d.pyomo.lp' read.
Read time = 0.14 sec. (5.36 ticks)
CPLEX> Problem name         : C:\Users\LUCASP~1\AppData\Local\Temp\tmpkrtx899d.pyomo.lp
Objective sense      : Minimize
Variables            :   25892  [Nneg: 1,  Binary: 25860,  General Integer: 31]
Objective nonzeros   :     100
Linear constraints   :   50725  [Less: 36113,  Greater: 1,  Equal: 14611]
  Nonzeros           :  116202
  RHS nonzeros       :   10069

Variables            : Min LB: 0.000000         Max UB: 1.000000       
Objective nonzeros   : Min   : 0.01010101       Max   : 0.01010101     
Linear constraints   :
  Nonzeros           : Min   : 1.000000         Max   : 100000.0       
  RHS nonzeros       : Min   : 1.000000         Max   : 30.00000       
CPLEX> Version identifier: 22.1.0.0 | 2022-03-09 | 1a383f8ce
Tried aggregator 3 times.
MIP Presolve eliminated 27819 rows and 16629 columns.
MIP Presolve modified 777 coefficients.
Aggregator did 278 substitutions.
Reduced MIP has 22628 rows, 8985 columns, and 56756 nonzeros.
Reduced MIP has 8955 binaries, 30 generals, 0 SOSs, and 0 indicators.
Presolve time = 0.61 sec. (230.69 ticks)
Probing time = 0.30 sec. (32.52 ticks)
Tried aggregator 1 time.
Detecting symmetries...
MIP Presolve eliminated 39 rows and 13 columns.
Reduced MIP has 22589 rows, 8972 columns, and 56665 nonzeros.
Reduced MIP has 8942 binaries, 30 generals, 0 SOSs, and 0 indicators.
Presolve time = 0.56 sec. (290.20 ticks)
Probing time = 0.08 sec. (7.75 ticks)
Clique table members: 37146.
MIP emphasis: balance optimality and feasibility.
MIP search method: dynamic search.
Parallel mode: deterministic, using up to 4 threads.
Root relaxation solution time = 1.89 sec. (333.49 ticks)

        Nodes                                         Cuts/
   Node  Left     Objective  IInf  Best Integer    Best Bound    ItCnt     Gap

      0     0       -1.0000   544                     -1.0000       10         
*     0+    0                            0.0000       -1.0000              --- 
*     0+    0                           -0.1919       -1.0000           421.05%
      0     0       -1.0000    39       -0.1919      Cuts: 13      174  421.05%
      0     0       -1.0000   107       -0.1919     Cuts: 125      851  421.05%
      0     0       -1.0000  1569       -0.1919      Cuts: 31     2021  421.05%
*     0+    0                           -1.0000       -1.0000             0.00%
      0     0        cutoff             -1.0000       -1.0000     2021    0.00%
Elapsed time = 27.69 sec. (8310.16 ticks, tree = 0.01 MB, solutions = 3)

Implied bound cuts applied:  28
Mixed integer rounding cuts applied:  2

Root node processing (before b&c):
  Real time             =   27.69 sec. (8311.46 ticks)
Parallel b&c, 4 threads:
  Real time             =    0.00 sec. (0.00 ticks)
  Sync time (average)   =    0.00 sec.
  Wait time (average)   =    0.00 sec.
                          ------------
Total (root+branch&cut) =   27.69 sec. (8311.46 ticks)

Solution pool: 3 solutions saved.

MIP - Integer optimal solution:  Objective = -1.0000000000e+00
Solution time =   27.70 sec.  Iterations = 2021  Nodes = 0
Deterministic time = 8311.53 ticks  (300.02 ticks/sec)

CPLEX> Incumbent solution written to file 'C:\Users\LUCASP~1\AppData\Local\Temp\tmp9opn2i5_.cplex.sol'.
CPLEX> 
Resultados:

E: 0.64910706395624 -- 15.052868 mA
C: 1.0 -- 99.0 m^2
WEIGHTED: -1.0
Solving time: 27.7 s
Total Pyomo time: 28.467893362045288 s
Total elapsed time since execution: 10003.409554243088
